minizinc/sudoku_problems2/sudoku_p82.dzn
%
% sudoku_p82.dzn
% See http://www.hakank.org/minizinc/sudoku_gcc.mzn
% 
% This problem is problem 82 from
% Gecode's sudoku.cpp
% http://www.gecode.org/gecode-doc-latest/sudoku_8cpp-source.html
% 
x = array2d(1..n, 1..n, [   
% http://janko.at/Raetsel/Sudoku/594.a.htm
% 82
  5,  _,  _,  _,  _, 14,  _,  _,  _,  7, 11,  _,  _, 12, 15,  2,
 10, 15,  _,  4,  6,  7,  _,  _,  _,  _,  3,  _,  _,  _, 13,  _,
 13,  _, 14,  _, 12,  _,  3,  _,  _,  _,  _,  8,  _,  7,  _,  _,
  _,  _,  _,  _,  8,  _,  _, 13, 10,  6,  _, 14,  _,  _,  5,  _,
  _,  _,  3, 11,  _,  _,  _,  _,  4,  _, 10,  _, 14, 15,  1,  _,
  6,  9,  _,  _, 11,  _, 13,  _,  3,  _,  _,  _,  _,  _, 12,  7,
  1,  _,  _, 16,  _,  _,  _,  4,  9,  _, 12,  _,  _,  6,  _,  _,
  _,  _,  _, 13,  1,  2, 16,  5, 15, 14,  _,  _, 11,  _,  _,  _,
  _,  _,  _,  7,  _,  _,  9,  3,  2,  8,  5, 10, 15,  _,  _,  _,
  _,  _,  8,  _,  _,  4,  _,  7,  6,  _,  _,  _,  2,  _,  _, 16,
  9,  6,  _,  _,  _,  _,  _, 15,  _,  3,  _, 11,  _,  _,  8,  4,
  _, 10, 11,  3,  _, 16,  _,  6,  _,  _,  _,  _,  9,  5,  _,  _,
  _,  1,  _,  _, 15,  _,  6,  9, 14,  _,  _,  2,  _,  _,  _,  _,
  _,  _,  9,  _, 16,  _,  _,  _,  _, 15,  _,  3,  _,  2,  _, 14,
  _, 14,  _,  _,  _, 13,  _,  _,  _,  _,  9,  5, 16,  _, 11, 15,
  2, 16,  7,  _,  _, 12,  5,  _,  _,  _,  4,  _,  _,  _,  _,  3
]);

n = 16;


